c Reduced graph for p25_3 generated by Cyril Grelier
p edge 33 108
v 1 141
v 2 139
v 3 128
v 4 120
v 5 118
v 6 113
v 7 112
v 8 110
v 9 96
v 10 89
v 11 85
v 12 84
v 13 82
v 14 78
v 15 70
v 16 67
v 17 64
v 18 62
v 19 50
v 20 45
v 21 40
v 22 35
v 23 30
v 24 25
v 25 25
v 26 23
v 27 23
v 28 16
v 29 15
v 30 14
v 31 11
v 32 10
v 33 7
e 1 3
e 1 6
e 1 14
e 1 15
e 1 18
e 1 21
e 2 4
e 2 9
e 2 10
e 2 15
e 2 17
e 2 23
e 3 6
e 3 14
e 3 20
e 3 22
e 3 23
e 3 32
e 4 5
e 4 15
e 4 17
e 4 19
e 4 23
e 4 26
e 5 19
e 5 20
e 5 26
e 6 12
e 6 14
e 6 29
e 7 11
e 7 14
e 7 21
e 7 26
e 7 28
e 7 30
e 8 10
e 8 12
e 8 18
e 8 24
e 8 25
e 8 27
e 8 28
e 8 30
e 8 31
e 8 33
e 9 10
e 9 13
e 9 22
e 9 33
e 10 12
e 10 18
e 10 25
e 10 30
e 11 14
e 11 24
e 11 29
e 11 30
e 11 32
e 12 18
e 12 25
e 12 29
e 12 30
e 13 16
e 13 17
e 13 22
e 13 25
e 13 33
e 14 30
e 15 17
e 15 18
e 15 21
e 15 23
e 16 17
e 16 19
e 16 25
e 16 31
e 17 23
e 17 25
e 18 21
e 18 25
e 18 30
e 19 26
e 19 31
e 20 22
e 20 23
e 20 32
e 21 26
e 21 28
e 22 23
e 22 32
e 22 33
e 23 32
e 24 27
e 24 28
e 24 29
e 24 31
e 24 32
e 24 33
e 25 30
e 26 28
e 27 28
e 27 31
e 27 33
e 28 31
e 28 33
e 29 32
e 31 33
